material/decrypto.cnf
38 0
693 0
40 0
695 0
42 0
697 0
44 0
699 0
46 0
701 0
48 0
703 0
50 0
705 0
p cnf 619 748
541 38 0
-541 -38 0
536 40 0
-536 -40 0
516 42 0
-516 -42 0
-44 -195 0
-44 -194 0
44 195 194 0
46 544 0
46 419 0
46 531 0
46 473 0
-46 -544 -419 -531 -473 0
48 202 0
48 461 0
48 530 0
48 472 0
-48 -202 -461 -530 -472 0
50 203 0
50 460 0
50 418 0
50 471 0
-50 -203 -460 -418 -471 0
313 69 0
-313 -69 0
316 469 0
-316 -469 0
320 72 0
-320 -72 0
345 410 0
-345 -410 0
335 73 0
-335 -73 0
323 458 0
-323 -458 0
356 74 0
-356 -74 0
338 397 0
-338 -397 0
329 75 0
-329 -75 0
361 451 0
-361 -451 0
347 76 0
-347 -76 0
375 507 0
-375 -507 0
367 77 0
-367 -77 0
352 430 0
-352 -430 0
379 78 0
-379 -78 0
370 494 0
-370 -494 0
383 79 0
-383 -79 0
455 414 0
-455 -414 0
456 315 0
456 51 0
-456 -315 -51 0
-117 -470 0
-117 -318 0
117 470 318 0
-118 -469 0
-118 -331 0
118 469 331 0
528 344 0
528 53 0
-528 -344 -53 0
449 322 0
449 55 0
-449 -322 -55 0
492 337 0
492 57 0
-492 -337 -57 0
526 360 0
526 59 0
-526 -360 -59 0
447 374 0
447 61 0
-447 -374 -61 0
490 351 0
490 63 0
-490 -351 -63 0
524 369 0
524 65 0
-524 -369 -65 0
445 454 0
445 67 0
-445 -454 -67 0
-119 -411 0
-119 -325 0
119 411 325 0
-127 -410 0
-127 -349 0
127 410 349 0
-120 -459 0
-120 -340 0
120 459 340 0
-128 -458 0
-128 -327 0
128 458 327 0
-121 -398 0
-121 -363 0
121 398 363 0
-129 -397 0
-129 -342 0
129 397 342 0
-122 -452 0
-122 -333 0
122 452 333 0
-130 -451 0
-130 -365 0
130 451 365 0
-123 -508 0
-123 -354 0
123 508 354 0
-131 -507 0
-131 -377 0
131 507 377 0
-124 -431 0
-124 -372 0
124 431 372 0
-132 -430 0
-132 -358 0
132 430 358 0
-125 -495 0
-125 -381 0
125 495 381 0
-133 -494 0
-133 -413 0
133 494 413 0
-126 -415 0
-126 -385 0
126 415 385 0
-134 -414 0
-134 -417 0
134 414 417 0
-541 446 0
-541 525 0
-541 491 0
-541 448 0
-541 527 0
-541 493 0
-541 450 0
-541 529 0
-541 457 0
541 -446 -525 -491 -448 -527 -493 -450 -529 -457 0
543 388 0
-543 -388 0
542 401 0
-542 -401 0
428 -247 0
428 -246 0
-428 247 246 0
467 -283 0
467 -282 0
-467 283 282 0
386 -205 0
386 -204 0
-386 205 204 0
426 -241 0
426 -240 0
-426 241 240 0
465 -277 0
465 -276 0
-465 277 276 0
509 -301 0
509 -300 0
-509 301 300 0
185 409 0
185 312 0
-185 -409 -312 0
443 -259 0
443 -258 0
-443 259 258 0
186 319 0
186 408 0
-186 -319 -408 0
505 -295 0
505 -294 0
-505 295 294 0
187 334 0
187 407 0
-187 -334 -407 0
424 -235 0
424 -234 0
-424 235 234 0
188 355 0
188 406 0
-188 -355 -406 0
189 328 0
189 405 0
-189 -328 -405 0
190 346 0
190 404 0
-190 -346 -404 0
191 366 0
191 403 0
-191 -366 -403 0
192 378 0
192 402 0
-192 -378 -402 0
193 382 0
193 401 0
-193 -382 -401 0
422 70 0
422 429 0
-422 -70 -429 0
136 71 0
136 428 0
-136 -71 -428 0
488 80 0
488 468 0
-488 -80 -468 0
522 82 0
522 387 0
-522 -82 -387 0
441 84 0
441 427 0
-441 -84 -427 0
486 86 0
486 466 0
-486 -86 -466 0
520 88 0
520 510 0
-520 -88 -510 0
539 90 0
539 444 0
-539 -90 -444 0
484 92 0
484 506 0
-484 -92 -506 0
518 94 0
518 425 0
-518 -94 -425 0
137 81 0
137 467 0
-137 -81 -467 0
138 83 0
138 386 0
-138 -83 -386 0
139 85 0
139 426 0
-139 -85 -426 0
140 87 0
140 465 0
-140 -87 -465 0
141 89 0
141 509 0
-141 -89 -509 0
142 91 0
142 443 0
-142 -91 -443 0
143 93 0
143 505 0
-143 -93 -505 0
144 95 0
144 424 0
-144 -95 -424 0
-536 519 0
-536 485 0
-536 540 0
-536 521 0
-536 487 0
-536 442 0
-536 523 0
-536 489 0
-536 423 0
536 -519 -485 -540 -521 -487 -442 -523 -489 -423 0
118 165 0
-118 -165 0
127 166 0
-127 -166 0
128 167 0
-128 -167 0
129 168 0
-129 -168 0
130 169 0
-130 -169 0
131 170 0
-131 -170 0
132 171 0
-132 -171 0
133 172 0
-133 -172 0
134 173 0
-134 -173 0
538 475 0
-538 -475 0
537 496 0
-537 -496 0
165 -211 0
165 -210 0
-165 211 210 0
166 -217 0
166 -216 0
-166 217 216 0
167 -229 0
167 -228 0
-167 229 228 0
168 -253 0
168 -252 0
-168 253 252 0
185 504 0
185 317 0
-185 -504 -317 0
169 -271 0
169 -270 0
-169 271 270 0
186 324 0
186 503 0
-186 -324 -503 0
170 -289 0
170 -288 0
-170 289 288 0
187 339 0
187 502 0
-187 -339 -502 0
171 -307 0
171 -306 0
-171 307 306 0
188 362 0
188 501 0
-188 -362 -501 0
172 -223 0
172 -222 0
-172 223 222 0
189 332 0
189 500 0
-189 -332 -500 0
173 -265 0
173 -264 0
-173 265 264 0
190 353 0
190 499 0
-190 -353 -499 0
191 371 0
191 498 0
-191 -371 -498 0
192 380 0
192 497 0
-192 -380 -497 0
193 384 0
193 496 0
-193 -384 -496 0
174 136 0
174 147 0
-174 -136 -147 0
174 137 0
174 148 0
-174 -137 -148 0
174 138 0
174 149 0
-174 -138 -149 0
174 139 0
174 150 0
-174 -139 -150 0
174 140 0
174 152 0
-174 -140 -152 0
174 141 0
174 154 0
-174 -141 -154 0
174 142 0
174 156 0
-174 -142 -156 0
174 143 0
174 158 0
-174 -143 -158 0
174 144 0
174 160 0
-174 -144 -160 0
-516 173 0
-516 172 0
-516 171 0
-516 170 0
-516 169 0
-516 168 0
-516 167 0
-516 166 0
-516 165 0
516 -173 -172 -171 -170 -169 -168 -167 -166 -165 0
517 432 0
-517 -432 0
185 440 0
185 330 0
-185 -440 -330 0
186 348 0
186 439 0
-186 -348 -439 0
187 326 0
187 438 0
-187 -326 -438 0
188 341 0
188 437 0
-188 -341 -437 0
189 364 0
189 436 0
-189 -364 -436 0
190 376 0
190 435 0
-190 -376 -435 0
191 357 0
191 434 0
-191 -357 -434 0
192 412 0
192 433 0
-192 -412 -433 0
193 416 0
193 432 0
-193 -416 -432 0
194 176 0
194 151 0
194 105 0
194 314 0
-194 -176 -151 -105 -314 0
471 343 0
471 177 0
471 153 0
471 107 0
-471 -343 -177 -153 -107 0
530 321 0
530 178 0
530 155 0
530 109 0
-530 -321 -178 -155 -109 0
511 336 0
511 179 0
511 157 0
511 111 0
-511 -336 -179 -157 -111 0
544 359 0
544 180 0
544 159 0
544 112 0
-544 -359 -180 -159 -112 0
420 373 0
420 181 0
420 161 0
420 113 0
-420 -373 -181 -161 -113 0
462 350 0
462 182 0
462 162 0
462 114 0
-462 -350 -182 -162 -114 0
399 368 0
399 183 0
399 163 0
399 115 0
-399 -368 -183 -163 -115 0
195 453 0
195 184 0
195 164 0
195 116 0
-195 -453 -184 -164 -116 0
185 43 0
-185 -43 0
-43 193 0
-43 400 0
-43 464 0
-43 421 0
-43 547 0
-43 515 0
-43 535 0
-43 474 0
43 -193 -400 -464 -421 -547 -515 -535 -474 0
514 200 0
-514 -200 0
420 201 0
-420 -201 0
463 202 0
-463 -202 0
399 203 0
-399 -203 0
418 196 0
418 534 0
-418 -196 -534 0
460 546 0
460 197 0
460 513 0
460 533 0
-460 -546 -197 -513 -533 0
47 198 0
47 512 0
47 545 0
-47 -198 -512 -545 0
49 199 0
49 462 0
49 511 0
49 532 0
-49 -199 -462 -511 -532 0
-101 207 0
-101 549 0
101 -207 -549 0
-101 206 0
-101 553 0
101 -206 -553 0
548 205 0
-548 -205 0
552 204 0
-552 -204 0
-449 548 0
449 -548 0
-394 552 0
394 -552 0
-147 213 0
-147 551 0
147 -213 -551 0
-147 212 0
-147 557 0
147 -212 -557 0
550 211 0
-550 -211 0
556 210 0
-556 -210 0
-422 550 0
422 -550 0
-483 556 0
483 -556 0
-148 219 0
-148 555 0
148 -219 -555 0
-148 218 0
-148 569 0
148 -218 -569 0
554 217 0
-554 -217 0
568 216 0
-568 -216 0
-488 554 0
488 -554 0
-482 568 0
482 -568 0
-158 225 0
-158 567 0
158 -225 -567 0
-158 224 0
-158 583 0
158 -224 -583 0
566 223 0
-566 -223 0
582 222 0
-582 -222 0
-484 566 0
484 -566 0
-476 582 0
476 -582 0
-149 231 0
-149 565 0
149 -231 -565 0
-149 230 0
-149 581 0
149 -230 -581 0
564 229 0
-564 -229 0
580 228 0
-580 -228 0
-522 564 0
522 -564 0
-481 580 0
481 -580 0
-110 237 0
-110 563 0
110 -237 -563 0
-110 236 0
-110 579 0
110 -236 -579 0
562 235 0
-562 -235 0
578 234 0
-578 -234 0
-445 562 0
445 -562 0
-388 578 0
388 -578 0
-102 243 0
-102 561 0
102 -243 -561 0
-102 242 0
-102 577 0
102 -242 -577 0
560 241 0
-560 -241 0
576 240 0
-576 -240 0
-492 560 0
492 -560 0
-393 576 0
393 -576 0
-99 249 0
-99 559 0
99 -249 -559 0
-99 248 0
-99 575 0
99 -248 -575 0
558 247 0
-558 -247 0
574 246 0
-574 -246 0
-456 558 0
456 -558 0
-396 574 0
396 -574 0
-150 255 0
-150 573 0
150 -255 -573 0
-150 254 0
-150 589 0
150 -254 -589 0
572 253 0
-572 -253 0
588 252 0
-588 -252 0
-441 572 0
441 -572 0
-480 588 0
480 -588 0
-106 261 0
-106 571 0
106 -261 -571 0
-106 260 0
-106 587 0
106 -260 -587 0
570 259 0
-570 -259 0
586 258 0
-586 -258 0
-490 570 0
490 -570 0
-390 586 0
390 -586 0
-160 267 0
-160 585 0
160 -267 -585 0
-160 266 0
-160 597 0
160 -266 -597 0
584 265 0
-584 -265 0
596 264 0
-596 -264 0
-518 584 0
518 -584 0
-475 596 0
475 -596 0
-152 273 0
-152 595 0
152 -273 -595 0
-152 272 0
-152 603 0
152 -272 -603 0
594 271 0
-594 -271 0
602 270 0
-602 -270 0
-486 594 0
486 -594 0
-479 602 0
479 -602 0
-103 279 0
-103 593 0
103 -279 -593 0
-103 278 0
-103 601 0
103 -278 -601 0
592 277 0
-592 -277 0
600 276 0
-600 -276 0
-526 592 0
526 -592 0
-392 600 0
392 -600 0
-100 285 0
-100 591 0
100 -285 -591 0
-100 284 0
-100 599 0
100 -284 -599 0
590 283 0
-590 -283 0
598 282 0
-598 -282 0
-528 590 0
528 -590 0
-395 598 0
395 -598 0
-154 291 0
-154 607 0
154 -291 -607 0
-154 290 0
-154 613 0
154 -290 -613 0
606 289 0
-606 -289 0
612 288 0
-612 -288 0
-520 606 0
520 -606 0
-478 612 0
478 -612 0
-108 297 0
-108 605 0
108 -297 -605 0
-108 296 0
-108 611 0
108 -296 -611 0
604 295 0
-604 -295 0
610 294 0
-610 -294 0
-524 604 0
524 -604 0
-389 610 0
389 -610 0
-104 303 0
-104 609 0
104 -303 -609 0
-104 302 0
-104 617 0
104 -302 -617 0
608 301 0
-608 -301 0
616 300 0
-616 -300 0
-447 608 0
447 -608 0
-391 616 0
391 -616 0
-156 309 0
-156 615 0
156 -309 -615 0
-156 308 0
-156 619 0
156 -308 -619 0
614 307 0
-614 -307 0
618 306 0
-618 -306 0
-539 614 0
539 -614 0
-477 618 0
477 -618 0
p cnf 656 1090
-51 51 564 0
-51 51 621 0
-51 564 -621 0
51 -564 -621 0
51 -51 621 0
51 -51 -564 0
-51 51 229 0
-51 51 621 0
-51 229 -621 0
51 -229 -621 0
51 -51 621 0
51 -51 -229 0
-456 456 108 0
-456 456 622 0
-456 108 -622 0
456 -108 -622 0
456 -456 622 0
456 -456 -108 0
-558 558 228 0
-558 558 623 0
-558 228 -623 0
558 -228 -623 0
558 -558 623 0
558 -558 -228 0
-248 248 494 0
-248 248 624 0
-248 494 -624 0
248 -494 -624 0
248 -248 624 0
248 -248 -494 0
-248 248 169 0
-248 248 624 0
-248 169 -624 0
248 -169 -624 0
248 -248 624 0
248 -248 -169 0
-247 247 426 0
-247 247 625 0
-247 426 -625 0
247 -426 -625 0
247 -247 625 0
247 -247 -426 0
-247 247 240 0
-247 247 625 0
-247 240 -625 0
247 -240 -625 0
247 -247 625 0
247 -247 -240 0
-313 428 313 0
-313 428 626 0
-313 313 -626 0
313 -313 -626 0
313 -428 626 0
313 -428 -313 0
-469 469 40 0
-469 469 626 0
-469 40 -626 0
469 -40 -626 0
469 -469 626 0
469 -469 -40 0
-71 71 201 0
-71 71 627 0
-71 201 -627 0
71 -201 -627 0
71 -71 627 0
71 -71 -201 0
-71 71 172 0
-71 71 627 0
-71 172 -627 0
71 -172 -627 0
71 -71 627 0
71 -71 -172 0
-118 118 173 0
-118 118 628 0
-118 173 -628 0
118 -173 -628 0
118 -118 628 0
118 -118 -173 0
-118 118 606 0
-118 118 628 0
-118 606 -628 0
118 -606 -628 0
118 -118 628 0
118 -118 -606 0
-136 136 490 0
-136 136 629 0
-136 490 -629 0
136 -490 -629 0
136 -136 629 0
136 -136 -490 0
-136 136 174 0
-136 136 629 0
-136 174 -629 0
136 -174 -629 0
136 -136 629 0
136 -136 -174 0
-165 165 103 0
-165 165 630 0
-165 103 -630 0
165 -103 -630 0
165 -165 630 0
165 -165 -103 0
-165 165 560 0
-165 165 630 0
-165 560 -630 0
165 -560 -630 0
165 -165 630 0
165 -165 -560 0
-316 516 316 0
-316 516 631 0
-316 316 -631 0
316 -316 -631 0
316 -516 631 0
316 -516 -316 0
-53 53 252 0
-53 53 631 0
-53 252 -631 0
53 -252 -631 0
53 -53 631 0
53 -53 -252 0
-53 53 75 0
-53 53 631 0
-53 75 -631 0
53 -75 -631 0
53 -53 631 0
53 -53 -75 0
-528 528 192 0
-528 528 632 0
-528 192 -632 0
528 -192 -632 0
528 -528 632 0
528 -528 -192 0
-590 590 48 0
-590 590 633 0
-590 48 -633 0
590 -48 -633 0
590 -590 633 0
590 -590 -48 0
-284 284 186 0
-284 284 634 0
-284 186 -634 0
284 -186 -634 0
284 -284 634 0
284 -284 -186 0
-284 284 117 0
-284 284 634 0
-284 117 -634 0
284 -117 -634 0
284 -284 634 0
284 -284 -117 0
-283 283 576 0
-283 283 635 0
-283 576 -635 0
283 -576 -635 0
283 -283 635 0
283 -283 -576 0
-283 283 524 0
-283 283 635 0
-283 524 -635 0
283 -524 -635 0
283 -283 635 0
283 -283 -524 0
-320 467 320 0
-320 467 636 0
-320 320 -636 0
320 -320 -636 0
320 -467 636 0
320 -467 -320 0
-410 410 192 0
-410 410 636 0
-410 192 -636 0
410 -192 -636 0
410 -410 636 0
410 -410 -192 0
-81 81 306 0
-81 81 637 0
-81 306 -637 0
81 -306 -637 0
81 -81 637 0
81 -81 -306 0
-81 81 289 0
-81 81 637 0
-81 289 -637 0
81 -289 -637 0
81 -81 637 0
81 -81 -289 0
-127 127 185 0
-127 127 638 0
-127 185 -638 0
127 -185 -638 0
127 -127 638 0
127 -127 -185 0
-127 127 190 0
-127 127 638 0
-127 190 -638 0
127 -190 -638 0
127 -127 638 0
127 -127 -190 0
-137 137 288 0
-137 137 639 0
-137 288 -639 0
137 -288 -639 0
137 -137 639 0
137 -137 -288 0
-137 137 169 0
-137 137 639 0
-137 169 -639 0
137 -169 -639 0
137 -137 639 0
137 -137 -169 0
-166 166 132 0
-166 166 640 0
-166 132 -640 0
166 -132 -640 0
166 -166 640 0
166 -166 -132 0
-166 166 104 0
-166 166 640 0
-166 104 -640 0
166 -104 -640 0
166 -166 640 0
166 -166 -104 0
-345 516 345 0
-345 516 641 0
-345 345 -641 0
345 -345 -641 0
345 -516 641 0
345 -516 -345 0
-55 55 552 0
-55 55 641 0
-55 552 -641 0
55 -552 -641 0
55 -55 641 0
55 -55 -552 0
-55 55 190 0
-55 55 641 0
-55 190 -641 0
55 -190 -641 0
55 -55 641 0
55 -55 -190 0
-449 449 173 0
-449 449 642 0
-449 173 -642 0
449 -173 -642 0
449 -449 642 0
449 -449 -173 0
-548 548 271 0
-548 548 643 0
-548 271 -643 0
548 -271 -643 0
548 -548 643 0
548 -548 -271 0
-206 206 253 0
-206 206 644 0
-206 253 -644 0
206 -253 -644 0
206 -206 644 0
206 -206 -253 0
-206 206 147 0
-206 206 644 0
-206 147 -644 0
206 -147 -644 0
206 -206 644 0
206 -206 -147 0
-205 205 204 0
-205 205 645 0
-205 204 -645 0
205 -204 -645 0
205 -205 645 0
205 -205 -204 0
-205 205 509 0
-205 205 645 0
-205 509 -645 0
205 -509 -645 0
205 -205 645 0
205 -205 -509 0
-335 386 335 0
-335 386 646 0
-335 335 -646 0
335 -335 -646 0
335 -386 646 0
335 -386 -335 0
-458 458 188 0
-458 458 646 0
-458 188 -646 0
458 -188 -646 0
458 -458 646 0
458 -458 -188 0
-83 83 150 0
-83 83 647 0
-83 150 -647 0
83 -150 -647 0
83 -83 647 0
83 -83 -150 0
-83 83 432 0
-83 83 647 0
-83 432 -647 0
83 -432 -647 0
83 -83 647 0
83 -83 -432 0
-128 128 541 0
-128 128 648 0
-128 541 -648 0
128 -541 -648 0
128 -128 648 0
128 -128 -541 0
-128 128 156 0
-128 128 648 0
-128 156 -648 0
128 -156 -648 0
128 -128 648 0
128 -128 -156 0
-138 138 174 0
-138 138 649 0
-138 174 -649 0
138 -174 -649 0
138 -138 649 0
138 -138 -174 0
-138 138 165 0
-138 138 649 0
-138 165 -649 0
138 -165 -649 0
138 -138 649 0
138 -138 -165 0
-167 167 526 0
-167 167 650 0
-167 526 -650 0
167 -526 -650 0
167 -167 650 0
167 -167 -526 0
-167 167 530 0
-167 167 650 0
-167 530 -650 0
167 -530 -650 0
167 -167 650 0
167 -167 -530 0
-323 516 323 0
-323 516 651 0
-323 323 -651 0
323 -323 -651 0
323 -516 651 0
323 -516 -323 0
38 541 0
-38 -541 0
40 536 0
-40 -536 0
42 516 0
-42 -516 0
-44 -195 0
-44 -194 0
44 195 194 0
46 544 0
46 419 0
46 531 0
46 473 0
-46 -544 -419 -531 -473 0
48 202 0
48 461 0
48 530 0
48 472 0
-48 -202 -461 -530 -472 0
50 203 0
50 460 0
50 418 0
50 471 0
-50 -203 -460 -418 -471 0
69 313 0
-69 -313 0
469 316 0
-469 -316 0
72 320 0
-72 -320 0
410 345 0
-410 -345 0
73 335 0
-73 -335 0
458 323 0
-458 -323 0
74 356 0
-74 -356 0
397 338 0
-397 -338 0
75 329 0
-75 -329 0
451 361 0
-451 -361 0
76 347 0
-76 -347 0
507 375 0
-507 -375 0
77 367 0
-77 -367 0
430 352 0
-430 -352 0
78 379 0
-78 -379 0
494 370 0
-494 -370 0
79 383 0
-79 -383 0
414 455 0
-414 -455 0
456 315 0
456 51 0
-456 -315 -51 0
-117 -470 0
-117 -318 0
117 470 318 0
-118 -469 0
-118 -331 0
118 469 331 0
528 344 0
528 53 0
-528 -344 -53 0
449 322 0
449 55 0
-449 -322 -55 0
492 337 0
492 57 0
-492 -337 -57 0
526 360 0
526 59 0
-526 -360 -59 0
447 374 0
447 61 0
-447 -374 -61 0
490 351 0
490 63 0
-490 -351 -63 0
524 369 0
524 65 0
-524 -369 -65 0
445 454 0
445 67 0
-445 -454 -67 0
-119 -411 0
-119 -325 0
119 411 325 0
-127 -410 0
-127 -349 0
127 410 349 0
-120 -459 0
-120 -340 0
120 459 340 0
-128 -458 0
-128 -327 0
128 458 327 0
-121 -398 0
-121 -363 0
121 398 363 0
-129 -397 0
-129 -342 0
129 397 342 0
-122 -452 0
-122 -333 0
122 452 333 0
-130 -451 0
-130 -365 0
130 451 365 0
-123 -508 0
-123 -354 0
123 508 354 0
-131 -507 0
-131 -377 0
131 507 377 0
-124 -431 0
-124 -372 0
124 431 372 0
-132 -430 0
-132 -358 0
132 430 358 0
-125 -495 0
-125 -381 0
125 495 381 0
-133 -494 0
-133 -413 0
133 494 413 0
-126 -415 0
-126 -385 0
126 415 385 0
-134 -414 0
-134 -417 0
134 414 417 0
-541 446 0
-541 525 0
-541 491 0
-541 448 0
-541 527 0
-541 493 0
-541 450 0
-541 529 0
-541 457 0
541 -446 -525 -491 -448 -527 -493 -450 -529 -457 0
388 543 0
-388 -543 0
401 542 0
-401 -542 0
428 -247 0
428 -246 0
-428 247 246 0
467 -283 0
467 -282 0
-467 283 282 0
386 -205 0
386 -204 0
-386 205 204 0
426 -241 0
426 -240 0
-426 241 240 0
465 -277 0
465 -276 0
-465 277 276 0
509 -301 0
509 -300 0
-509 301 300 0
185 409 0
185 312 0
-185 -409 -312 0
443 -259 0
443 -258 0
-443 259 258 0
186 319 0
186 408 0
-186 -319 -408 0
505 -295 0
505 -294 0
-505 295 294 0
187 334 0
187 407 0
-187 -334 -407 0
424 -235 0
424 -234 0
-424 235 234 0
188 355 0
188 406 0
-188 -355 -406 0
189 328 0
189 405 0
-189 -328 -405 0
190 346 0
190 404 0
-190 -346 -404 0
191 366 0
191 403 0
-191 -366 -403 0
192 378 0
192 402 0
-192 -378 -402 0
193 382 0
193 401 0
-193 -382 -401 0
422 70 0
422 429 0
-422 -70 -429 0
136 71 0
136 428 0
-136 -71 -428 0
488 80 0
488 468 0
-488 -80 -468 0
522 82 0
522 387 0
-522 -82 -387 0
441 84 0
441 427 0
-441 -84 -427 0
486 86 0
486 466 0
-486 -86 -466 0
520 88 0
520 510 0
-520 -88 -510 0
539 90 0
539 444 0
-539 -90 -444 0
484 92 0
484 506 0
-484 -92 -506 0
518 94 0
518 425 0
-518 -94 -425 0
137 81 0
137 467 0
-137 -81 -467 0
138 83 0
138 386 0
-138 -83 -386 0
139 85 0
139 426 0
-139 -85 -426 0
140 87 0
140 465 0
-140 -87 -465 0
141 89 0
141 509 0
-141 -89 -509 0
142 91 0
142 443 0
-142 -91 -443 0
143 93 0
143 505 0
-143 -93 -505 0
144 95 0
144 424 0
-144 -95 -424 0
-536 519 0
-536 485 0
-536 540 0
-536 521 0
-536 487 0
-536 442 0
-536 523 0
-536 489 0
-536 423 0
536 -519 -485 -540 -521 -487 -442 -523 -489 -423 0
165 118 0
-165 -118 0
166 127 0
-166 -127 0
167 128 0
-167 -128 0
168 129 0
-168 -129 0
169 130 0
-169 -130 0
170 131 0
-170 -131 0
171 132 0
-171 -132 0
172 133 0
-172 -133 0
173 134 0
-173 -134 0
475 538 0
-475 -538 0
496 537 0
-496 -537 0
165 -211 0
165 -210 0
-165 211 210 0
166 -217 0
166 -216 0
-166 217 216 0
167 -229 0
167 -228 0
-167 229 228 0
168 -253 0
168 -252 0
-168 253 252 0
185 504 0
185 317 0
-185 -504 -317 0
169 -271 0
169 -270 0
-169 271 270 0
186 324 0
186 503 0
-186 -324 -503 0
170 -289 0
170 -288 0
-170 289 288 0
187 339 0
187 502 0
-187 -339 -502 0
171 -307 0
171 -306 0
-171 307 306 0
188 362 0
188 501 0
-188 -362 -501 0
172 -223 0
172 -222 0
-172 223 222 0
189 332 0
189 500 0
-189 -332 -500 0
173 -265 0
173 -264 0
-173 265 264 0
190 353 0
190 499 0
-190 -353 -499 0
191 371 0
191 498 0
-191 -371 -498 0
192 380 0
192 497 0
-192 -380 -497 0
193 384 0
193 496 0
-193 -384 -496 0
174 136 0
174 147 0
-174 -136 -147 0
174 137 0
174 148 0
-174 -137 -148 0
174 138 0
174 149 0
-174 -138 -149 0
174 139 0
174 150 0
-174 -139 -150 0
174 140 0
174 152 0
-174 -140 -152 0
174 141 0
174 154 0
-174 -141 -154 0
174 142 0
174 156 0
-174 -142 -156 0
174 143 0
174 158 0
-174 -143 -158 0
174 144 0
174 160 0
-174 -144 -160 0
-516 173 0
-516 172 0
-516 171 0
-516 170 0
-516 169 0
-516 168 0
-516 167 0
-516 166 0
-516 165 0
516 -173 -172 -171 -170 -169 -168 -167 -166 -165 0
432 517 0
-432 -517 0
185 440 0
185 330 0
-185 -440 -330 0
186 348 0
186 439 0
-186 -348 -439 0
187 326 0
187 438 0
-187 -326 -438 0
188 341 0
188 437 0
-188 -341 -437 0
189 364 0
189 436 0
-189 -364 -436 0
190 376 0
190 435 0
-190 -376 -435 0
191 357 0
191 434 0
-191 -357 -434 0
192 412 0
192 433 0
-192 -412 -433 0
193 416 0
193 432 0
-193 -416 -432 0
194 176 0
194 151 0
194 105 0
194 314 0
-194 -176 -151 -105 -314 0
471 343 0
471 177 0
471 153 0
471 107 0
-471 -343 -177 -153 -107 0
530 321 0
530 178 0
530 155 0
530 109 0
-530 -321 -178 -155 -109 0
511 336 0
511 179 0
511 157 0
511 111 0
-511 -336 -179 -157 -111 0
544 359 0
544 180 0
544 159 0
544 112 0
-544 -359 -180 -159 -112 0
420 373 0
420 181 0
420 161 0
420 113 0
-420 -373 -181 -161 -113 0
462 350 0
462 182 0
462 162 0
462 114 0
-462 -350 -182 -162 -114 0
399 368 0
399 183 0
399 163 0
399 115 0
-399 -368 -183 -163 -115 0
195 453 0
195 184 0
195 164 0
195 116 0
-195 -453 -184 -164 -116 0
43 185 0
-43 -185 0
-43 193 0
-43 400 0
-43 464 0
-43 421 0
-43 547 0
-43 515 0
-43 535 0
-43 474 0
43 -193 -400 -464 -421 -547 -515 -535 -474 0
200 514 0
-200 -514 0
201 420 0
-201 -420 0
202 463 0
-202 -463 0
203 399 0
-203 -399 0
418 196 0
418 534 0
-418 -196 -534 0
460 546 0
460 197 0
460 513 0
460 533 0
-460 -546 -197 -513 -533 0
47 198 0
47 512 0
47 545 0
-47 -198 -512 -545 0
49 199 0
49 462 0
49 511 0
49 532 0
-49 -199 -462 -511 -532 0
-101 207 0
-101 549 0
101 -207 -549 0
-101 206 0
-101 553 0
101 -206 -553 0
205 548 0
-205 -548 0
204 552 0
-204 -552 0
-548 449 0
548 -449 0
-552 394 0
552 -394 0
-147 213 0
-147 551 0
147 -213 -551 0
-147 212 0
-147 557 0
147 -212 -557 0
211 550 0
-211 -550 0
210 556 0
-210 -556 0
-550 422 0
550 -422 0
-556 483 0
556 -483 0
-148 219 0
-148 555 0
148 -219 -555 0
-148 218 0
-148 569 0
148 -218 -569 0
217 554 0
-217 -554 0
216 568 0
-216 -568 0
-554 488 0
554 -488 0
-568 482 0
568 -482 0
-158 225 0
-158 567 0
158 -225 -567 0
-158 224 0
-158 583 0
158 -224 -583 0
223 566 0
-223 -566 0
222 582 0
-222 -582 0
-566 484 0
566 -484 0
-582 476 0
582 -476 0
-149 231 0
-149 565 0
149 -231 -565 0
-149 230 0
-149 581 0
149 -230 -581 0
229 564 0
-229 -564 0
228 580 0
-228 -580 0
-564 522 0
564 -522 0
-580 481 0
580 -481 0
-110 237 0
-110 563 0
110 -237 -563 0
-110 236 0
-110 579 0
110 -236 -579 0
235 562 0
-235 -562 0
234 578 0
-234 -578 0
-562 445 0
562 -445 0
-578 388 0
578 -388 0
-102 243 0
-102 561 0
102 -243 -561 0
-102 242 0
-102 577 0
102 -242 -577 0
241 560 0
-241 -560 0
240 576 0
-240 -576 0
-560 492 0
560 -492 0
-576 393 0
576 -393 0
-99 249 0
-99 559 0
99 -249 -559 0
-99 248 0
-99 575 0
99 -248 -575 0
247 558 0
-247 -558 0
246 574 0
-246 -574 0
-558 456 0
558 -456 0
-574 396 0
574 -396 0
-150 255 0
-150 573 0
150 -255 -573 0
-150 254 0
-150 589 0
150 -254 -589 0
253 572 0
-253 -572 0
252 588 0
-252 -588 0
-572 441 0
572 -441 0
-588 480 0
588 -480 0
-106 261 0
-106 571 0
106 -261 -571 0
-106 260 0
-106 587 0
106 -260 -587 0
259 570 0
-259 -570 0
258 586 0
-258 -586 0
-570 490 0
570 -490 0
-586 390 0
586 -390 0
-160 267 0
-160 585 0
160 -267 -585 0
-160 266 0
-160 597 0
160 -266 -597 0
265 584 0
-265 -584 0
264 596 0
-264 -596 0
-584 518 0
584 -518 0
-596 475 0
596 -475 0
-152 273 0
-152 595 0
152 -273 -595 0
-152 272 0
-152 603 0
152 -272 -603 0
271 594 0
-271 -594 0
270 602 0
-270 -602 0
-594 486 0
594 -486 0
-602 479 0
602 -479 0
-103 279 0
-103 593 0
103 -279 -593 0
-103 278 0
-103 601 0
103 -278 -601 0
277 592 0
-277 -592 0
276 600 0
-276 -600 0
-592 526 0
592 -526 0
-600 392 0
600 -392 0
-100 285 0
-100 591 0
100 -285 -591 0
-100 284 0
-100 599 0
100 -284 -599 0
283 590 0
-283 -590 0
282 598 0
-282 -598 0
-590 528 0
590 -528 0
-598 395 0
598 -395 0
-154 291 0
-154 607 0
154 -291 -607 0
-154 290 0
-154 613 0
154 -290 -613 0
289 606 0
-289 -606 0
288 612 0
-288 -612 0
-606 520 0
606 -520 0
-612 478 0
612 -478 0
-108 297 0
-108 605 0
108 -297 -605 0
-108 296 0
-108 611 0
108 -296 -611 0
295 604 0
-295 -604 0
294 610 0
-294 -610 0
-604 524 0
604 -524 0
-610 389 0
610 -389 0
-104 303 0
-104 609 0
104 -303 -609 0
-104 302 0
-104 617 0
104 -302 -617 0
301 608 0
-301 -608 0
300 616 0
-300 -616 0
-608 447 0
608 -447 0
-616 391 0
616 -391 0
-156 309 0
-156 615 0
156 -309 -615 0
-156 308 0
-156 619 0
156 -308 -619 0
307 614 0
-307 -614 0
306 618 0
-306 -618 0
-614 539 0
614 -539 0
-618 477 0
618 -477 0
